* ENCODING=ISO-8859-1
NAME          CPLEX
ROWS
 N  obj1    
 G  c1      
 G  c2      
 G  c3      
 G  c4      
 G  c5      
 G  c6      
 G  c7      
 G  c8      
 G  c9      
 G  c10     
 G  c11     
 G  c12     
 G  c13     
 G  c14     
 G  c15     
 G  c16     
 G  c17     
 G  c18     
 G  c19     
 G  c20     
 G  c21     
 G  c22     
 G  c23     
 G  c24     
 G  c25     
 G  c26     
 G  c27     
 G  c28     
 G  c29     
 G  c30     
COLUMNS
    MARK0000  'MARKER'                 'INTORG'
    x1        obj1                            1
    x1        c26                           534
    x2        obj1                            1
    x2        c3                            477
    x2        c4                            760
    x2        c16                           965
    x2        c26                           428
    x3        obj1                            1
    x3        c4                            308
    x3        c7                            543
    x4        obj1                            1
    x4        c3                            255
    x4        c12                           956
    x4        c21                           180
    x4        c25                           594
    x5        obj1                            1
    x5        c9                            925
    x5        c21                           245
    x5        c29                           440
    x6        obj1                            1
    x6        c2                            830
    x6        c10                           314
    x6        c12                           206
    x6        c22                           499
    x7        obj1                            1
    x7        c1                            617
    x7        c2                            559
    x7        c20                           361
    x7        c30                           544
    x8        obj1                            1
    x8        c18                           903
    x8        c20                           846
    x8        c25                           827
    x8        c27                           210
    x8        c30                           615
    x9        obj1                            1
    x9        c27                           471
    x9        c29                           535
    x9        c30                           407
    x10       obj1                            1
    x10       c2                            919
    x10       c12                           122
    x11       obj1                            1
    x11       c8                            546
    x11       c13                           769
    x11       c14                           799
    x11       c24                           360
    x11       c29                           541
    x12       obj1                            1
    x12       c9                            892
    x12       c11                           506
    x13       obj1                            1
    x13       c6                            885
    x14       obj1                            1
    x14       c29                           748
    x15       obj1                            1
    x15       c10                           493
    x15       c16                           481
    x15       c28                           483
    x16       obj1                            1
    x16       c22                           831
    x16       c23                           500
    x16       c28                           511
    x17       obj1                            1
    x17       c8                            436
    x17       c19                           529
    x17       c20                           312
    x18       obj1                            1
    x18       c17                           819
    x18       c23                           331
    x19       obj1                            1
    x19       c13                           348
    x19       c15                           811
    x19       c25                           269
    x20       obj1                            1
    x20       c6                            815
    x20       c29                           969
    x21       obj1                            1
    x21       c1                            580
    x21       c6                            228
    x21       c8                            636
    x21       c22                           217
    x22       obj1                            1
    x22       c2                            202
    x22       c5                            678
    x22       c6                            377
    x22       c13                           672
    x22       c21                           714
    x22       c22                           606
    x23       obj1                            1
    x23       c2                            836
    x23       c10                           715
    x23       c12                           178
    x23       c17                           414
    x23       c22                           729
    x24       obj1                            1
    x24       c12                           347
    x24       c15                           510
    x24       c21                           165
    x25       obj1                            1
    x25       c2                            708
    x25       c6                            644
    x25       c9                            865
    x25       c28                           241
    x26       obj1                            1
    x26       c5                            107
    x26       c18                           748
    x26       c26                           731
    x26       c27                           560
    x27       obj1                            1
    x27       c6                            754
    x27       c24                           697
    x28       obj1                            1
    x28       c17                           106
    x28       c24                           260
    x28       c27                           513
    x29       obj1                            1
    x29       c5                            735
    x29       c6                            262
    x29       c13                           753
    x29       c14                           850
    x29       c30                           111
    x30       obj1                            1
    x30       c4                            452
    x30       c15                           875
    x30       c19                           354
    x31       obj1                            1
    x31       c20                           537
    x31       c28                           934
    x32       obj1                            1
    x32       c25                           259
    x32       c27                           416
    x33       obj1                            1
    x33       c3                            167
    x33       c21                           465
    x33       c28                           671
    x34       obj1                            1
    x34       c7                            967
    x34       c10                           484
    x34       c30                           117
    x35       obj1                            1
    x35       c1                            110
    x35       c2                            839
    x35       c21                           889
    x35       c22                           926
    x36       obj1                            1
    x36       c5                            223
    x36       c10                           618
    x36       c14                           818
    x36       c28                           916
    x37       obj1                            1
    x37       c14                           241
    x38       obj1                            1
    x38       c12                           550
    x38       c23                           661
    x38       c26                           774
    x38       c28                           777
    x38       c30                           888
    x39       obj1                            1
    x39       c5                            803
    x39       c24                           208
    x40       obj1                            1
    x40       c24                           434
    x40       c27                           346
    x41       obj1                            1
    x41       c1                            143
    x41       c18                           875
    x41       c22                           674
    x42       obj1                            1
    x42       c24                           115
    x43       obj1                            1
    x43       c9                            229
    x43       c12                           333
    x43       c24                           172
    x43       c25                           811
    x44       obj1                            1
    x44       c12                           864
    x44       c16                           401
    x44       c30                           783
    x45       obj1                            1
    x45       c8                            671
    x45       c13                           353
    x45       c26                           292
    x46       obj1                            1
    x46       c8                            244
    x46       c20                           465
    x46       c24                           195
    x47       obj1                            1
    x47       c10                           925
    x47       c12                           977
    x48       obj1                            1
    x48       c9                            744
    x48       c20                           274
    x48       c26                           714
    x48       c30                           823
    x49       obj1                            1
    x49       c11                           893
    x49       c17                           728
    x49       c20                           505
    x49       c29                           476
    x50       obj1                            1
    x50       c20                           975
    x50       c26                           320
    x50       c30                           781
    x51       obj1                            1
    x51       c6                            296
    x51       c25                           997
    x51       c26                           556
    x51       c27                           462
    x52       obj1                            1
    x52       c2                            279
    x52       c26                           488
    x53       obj1                            1
    x53       c7                            204
    x53       c29                           616
    x54       obj1                            1
    x54       c9                            177
    x54       c13                           847
    x54       c19                           322
    x54       c27                           116
    x54       c28                           331
    x55       obj1                            1
    x55       c5                            704
    x55       c15                           388
    x56       obj1                            1
    x56       c4                            712
    x56       c20                           971
    x56       c22                           851
    x56       c28                           915
    x57       obj1                            1
    x57       c5                            769
    x58       obj1                            1
    x58       c3                            100
    x58       c5                            168
    x58       c6                            822
    x58       c11                           388
    x58       c27                           297
    x59       obj1                            1
    x59       c2                            714
    x59       c25                           965
    x60       obj1                            1
    MARK0001  'MARKER'                 'INTEND'
RHS
    rhs       c1                            725
    rhs       c2                           2943
    rhs       c3                            500
    rhs       c4                           1116
    rhs       c5                           2094
    rhs       c6                           2542
    rhs       c7                            857
    rhs       c8                           1267
    rhs       c9                           1916
    rhs       c10                          1775
    rhs       c11                           894
    rhs       c12                          2267
    rhs       c13                          1871
    rhs       c14                          1354
    rhs       c15                          1292
    rhs       c16                           924
    rhs       c17                          1034
    rhs       c18                          1263
    rhs       c19                           603
    rhs       c20                          2623
    rhs       c21                          1329
    rhs       c22                          2667
    rhs       c23                           746
    rhs       c24                          1221
    rhs       c25                          2361
    rhs       c26                          2419
    rhs       c27                          1696
    rhs       c28                          2890
    rhs       c29                          2163
    rhs       c30                          2535
BOUNDS
 LI bnd       x1        0
 LI bnd       x2        0
 LI bnd       x3        0
 LI bnd       x4        0
 LI bnd       x5        0
 LI bnd       x6        0
 LI bnd       x7        0
 LI bnd       x8        0
 LI bnd       x9        0
 LI bnd       x10       0
 LI bnd       x11       0
 LI bnd       x12       0
 LI bnd       x13       0
 LI bnd       x14       0
 LI bnd       x15       0
 LI bnd       x16       0
 LI bnd       x17       0
 LI bnd       x18       0
 LI bnd       x19       0
 LI bnd       x20       0
 LI bnd       x21       0
 LI bnd       x22       0
 LI bnd       x23       0
 LI bnd       x24       0
 LI bnd       x25       0
 LI bnd       x26       0
 LI bnd       x27       0
 LI bnd       x28       0
 LI bnd       x29       0
 LI bnd       x30       0
 LI bnd       x31       0
 LI bnd       x32       0
 LI bnd       x33       0
 LI bnd       x34       0
 LI bnd       x35       0
 LI bnd       x36       0
 LI bnd       x37       0
 LI bnd       x38       0
 LI bnd       x39       0
 LI bnd       x40       0
 LI bnd       x41       0
 LI bnd       x42       0
 LI bnd       x43       0
 LI bnd       x44       0
 LI bnd       x45       0
 LI bnd       x46       0
 LI bnd       x47       0
 LI bnd       x48       0
 LI bnd       x49       0
 LI bnd       x50       0
 LI bnd       x51       0
 LI bnd       x52       0
 LI bnd       x53       0
 LI bnd       x54       0
 LI bnd       x55       0
 LI bnd       x56       0
 LI bnd       x57       0
 LI bnd       x58       0
 LI bnd       x59       0
 LI bnd       x60       0
ENDATA
